
  22   10
  10   10   10   10   10   10   10   10   10   10

   0   0   0   0   0   0   0   0   0   0   0   1 2 
   6  10  10  10  10  10  10  10  10  10  10   1 3 
   1  10  10  10  10  10  10  10  10  10  10   1 4 
  10  10  10  10  10  10  10  10  10  10  10   1 5 
   5  10  10  10  10  10  10  10  10  10  10   1 6 
  10  10  10  10  10  10  10  10  10  10  10   1 7 
   6  10  10  10  10  10  10  10  10  10  10   1 8 
   8  10  10  10  10  10  10  10  10  10  10   1 9 
   3  10  10  10  10  10  10  10  10  10  10   1 10 
   9  10  10  10  10  10  10  10  10  10  10   1 11 
   1  10  10  10  10  10  10  10  10  10  10   2 18 12 
   6  10  10  10  10  10  10  10  10  10  10   1 13 
   8  10  10  10  10  10  10  10  10  10  10   1 14 
   7  10  10  10  10  10  10  10  10  10  10   2 21 15 
   8  10  10  10  10  10  10  10  10  10  10   1 16 
   9  10  10  10  10  10  10  10  10  10  10   1 17 
  10  10  10  10  10  10  10  10  10  10  10   1 19 
   8  10  10  10  10  10  10  10  10  10  10   1 19 
   8  10  10  10  10  10  10  10  10  10  10   1 20 
   1  10  10  10  10  10  10  10  10  10  10   1 22
   2  10  10  10  10  10  10  10  10  10  10   1 22
   0   0   0   0   0   0   0   0   0   0   0   0 
